p cnf 25 10
-6 3 -14 8 -2 20 -21 -12 7 0
24 -6 17 1 5 22 -10 8 -16 19 21 -2 7 18 25 3 -9 -20 -23 13 12 15 0
8 -23 7 -11 0
-8 -5 0
7 1 24 -12 25 13 -2 -16 6 8 -15 0
-20 16 0
-9 -13 5 7 24 0
-1 25 11 0
12 2 -24 0
-23 -9 -5 -22 -1 -13 4 -25 -11 14 -21 8 2 -15 -16 -12 -19 -20 0
